
Gurobi 8.1.1 (win64) logging started 11/23/19 13:00:11

Changed value of parameter LogFile to logs/full/max/full-05-30-0.log
   Prev: gurobi.log  Default: 
Changed value of parameter LogToConsole to 0
   Prev: 1  Min: 0  Max: 1  Default: 1
Changed value of parameter TimeLimit to 3600.0
   Prev: 1e+100  Min: 0.0  Max: 1e+100  Default: 1e+100
Optimize a model with 802 rows, 369 columns and 2952 nonzeros
Variable types: 0 continuous, 369 integer (360 binary)
Coefficient statistics:
  Matrix range     [1e+00, 2e+02]
  Objective range  [1e+00, 1e+00]
  Bounds range     [1e+00, 1e+00]
  RHS range        [1e+00, 3e+02]
Found heuristic solution: objective 2.0000000
Presolve time: 0.01s
Presolved: 802 rows, 369 columns, 2952 nonzeros
Variable types: 0 continuous, 369 integer (360 binary)

Root relaxation: objective 1.000000e+01, 92 iterations, 0.00 seconds

    Nodes    |    Current Node    |     Objective Bounds      |     Work
 Expl Unexpl |  Obj  Depth IntInf | Incumbent    BestBd   Gap | It/Node Time

H    0     0                      10.0000000  360.00000  3500%     -    0s
     0     0          -    0        10.00000   10.00000  0.00%     -    0s

Explored 0 nodes (358 simplex iterations) in 0.03 seconds
Thread count was 4 (of 4 available processors)

Solution count 2: 10 2 

Optimal solution found (tolerance 1.00e-04)
Best objective 1.000000000000e+01, best bound 1.000000000000e+01, gap 0.0000%

Gurobi 8.1.1 (win64) logging started 11/23/19 13:00:11

Changed value of parameter LogFile to logs/full/max/full-05-30-0.log
   Prev: gurobi.log  Default: 
Changed value of parameter LogToConsole to 0
   Prev: 1  Min: 0  Max: 1  Default: 1
Changed value of parameter TimeLimit to 3600.0
   Prev: 1e+100  Min: 0.0  Max: 1e+100  Default: 1e+100
Optimize a model with 472 rows, 217 columns and 1722 nonzeros
Variable types: 0 continuous, 217 integer (210 binary)
Coefficient statistics:
  Matrix range     [1e+00, 2e+02]
  Objective range  [1e+00, 1e+00]
  Bounds range     [1e+00, 1e+00]
  RHS range        [1e+00, 3e+02]
Found heuristic solution: objective 2.0000000
Presolve time: 0.01s
Presolved: 472 rows, 217 columns, 1722 nonzeros
Variable types: 0 continuous, 217 integer (210 binary)

Root relaxation: objective 1.000000e+01, 78 iterations, 0.00 seconds

    Nodes    |    Current Node    |     Objective Bounds      |     Work
 Expl Unexpl |  Obj  Depth IntInf | Incumbent    BestBd   Gap | It/Node Time

     0     0   10.00000    0    7    2.00000   10.00000   400%     -    0s
H    0     0                       9.0000000   10.00000  11.1%     -    0s
     0     0   10.00000    0   23    9.00000   10.00000  11.1%     -    0s
H    0     0                      10.0000000   10.00000  0.00%     -    0s
     0     0   10.00000    0    6   10.00000   10.00000  0.00%     -    0s

Cutting planes:
  Gomory: 3
  MIR: 12
  StrongCG: 4
  Zero half: 3

Explored 1 nodes (436 simplex iterations) in 0.05 seconds
Thread count was 4 (of 4 available processors)

Solution count 3: 10 9 2 

Optimal solution found (tolerance 1.00e-04)
Best objective 1.000000000000e+01, best bound 1.000000000000e+01, gap 0.0000%

Gurobi 8.1.1 (win64) logging started 11/23/19 13:00:11

Changed value of parameter LogFile to logs/full/max/full-05-30-0.log
   Prev: gurobi.log  Default: 
Changed value of parameter LogToConsole to 0
   Prev: 1  Min: 0  Max: 1  Default: 1
Changed value of parameter TimeLimit to 3600.0
   Prev: 1e+100  Min: 0.0  Max: 1e+100  Default: 1e+100
Optimize a model with 340 rows, 156 columns and 1230 nonzeros
Variable types: 0 continuous, 156 integer (150 binary)
Coefficient statistics:
  Matrix range     [1e+00, 2e+02]
  Objective range  [1e+00, 1e+00]
  Bounds range     [1e+00, 1e+00]
  RHS range        [1e+00, 3e+02]
Found heuristic solution: objective 2.0000000
Presolve time: 0.00s
Presolved: 340 rows, 156 columns, 1230 nonzeros
Variable types: 0 continuous, 156 integer (150 binary)

Root relaxation: objective 1.000000e+01, 83 iterations, 0.00 seconds

    Nodes    |    Current Node    |     Objective Bounds      |     Work
 Expl Unexpl |  Obj  Depth IntInf | Incumbent    BestBd   Gap | It/Node Time

     0     0   10.00000    0    6    2.00000   10.00000   400%     -    0s
H    0     0                       8.0000000   10.00000  25.0%     -    0s
     0     0   10.00000    0   21    8.00000   10.00000  25.0%     -    0s
H    0     0                       9.0000000   10.00000  11.1%     -    0s
     0     0   10.00000    0    2    9.00000   10.00000  11.1%     -    0s
H    0     0                      10.0000000   10.00000  0.00%     -    0s
     0     0   10.00000    0   10   10.00000   10.00000  0.00%     -    0s

Cutting planes:
  MIR: 2
  Zero half: 1

Explored 1 nodes (437 simplex iterations) in 0.04 seconds
Thread count was 4 (of 4 available processors)

Solution count 4: 10 9 8 2 

Optimal solution found (tolerance 1.00e-04)
Best objective 1.000000000000e+01, best bound 1.000000000000e+01, gap 0.0000%
